SECTION Graph
Nodes 468
Edges 822
E 1 2 5
E 2 3 5
E 3 4 5
E 4 5 5
E 5 6 5
E 6 7 5
E 7 8 5
E 8 9 5
E 9 10 5
E 10 11 5
E 11 12 5
E 12 13 5
E 13 14 5
E 14 15 5
E 15 16 5
E 16 17 5
E 17 18 5
E 18 19 5
E 19 20 5
E 20 21 5
E 21 22 5
E 22 23 5
E 23 24 5
E 24 25 5
E 25 26 5
E 26 27 5
E 27 28 5
E 29 30 5
E 30 31 5
E 31 32 5
E 32 33 5
E 1 34 13
E 2 35 13
E 4 36 13
E 5 37 13
E 6 38 13
E 7 39 13
E 8 40 13
E 9 41 13
E 10 42 13
E 11 43 13
E 12 44 13
E 13 45 13
E 14 46 13
E 15 47 13
E 16 48 13
E 17 49 13
E 18 50 13
E 19 51 13
E 20 52 13
E 21 53 13
E 22 54 13
E 23 55 13
E 24 56 13
E 25 57 13
E 26 58 13
E 27 59 13
E 28 60 13
E 29 70 13
E 30 71 13
E 31 72 13
E 32 73 13
E 33 74 13
E 34 35 5
E 36 37 5
E 37 38 5
E 38 39 5
E 39 40 5
E 40 41 5
E 41 42 5
E 42 43 5
E 43 44 5
E 44 45 5
E 45 46 5
E 46 47 5
E 47 48 5
E 48 49 5
E 49 50 5
E 50 51 5
E 51 52 5
E 52 53 5
E 53 54 5
E 54 55 5
E 55 56 5
E 56 57 5
E 57 58 5
E 58 59 5
E 59 60 5
E 60 61 5
E 61 62 5
E 62 63 5
E 63 64 5
E 64 65 5
E 65 66 5
E 66 67 5
E 67 68 5
E 68 69 5
E 69 70 5
E 70 71 5
E 71 72 5
E 72 73 5
E 73 74 5
E 34 75 13
E 35 76 13
E 36 77 13
E 37 78 13
E 38 79 13
E 39 80 13
E 40 81 13
E 41 82 13
E 42 83 13
E 43 84 13
E 44 85 13
E 45 86 13
E 46 87 13
E 47 88 13
E 48 89 13
E 49 90 13
E 50 91 13
E 51 92 13
E 52 93 13
E 53 94 13
E 55 95 13
E 56 96 13
E 57 97 13
E 58 98 13
E 59 99 13
E 60 100 13
E 61 101 13
E 62 102 13
E 63 103 13
E 64 104 13
E 65 105 13
E 66 106 13
E 67 107 13
E 68 108 13
E 69 109 13
E 70 110 13
E 71 111 13
E 72 112 13
E 73 113 13
E 74 114 13
E 75 76 5
E 77 78 5
E 78 79 5
E 79 80 5
E 80 81 5
E 81 82 5
E 82 83 5
E 83 84 5
E 84 85 5
E 85 86 5
E 86 87 5
E 87 88 5
E 88 89 5
E 89 90 5
E 90 91 5
E 91 92 5
E 92 93 5
E 93 94 5
E 95 96 5
E 96 97 5
E 97 98 5
E 98 99 5
E 99 100 5
E 100 101 5
E 101 102 5
E 102 103 5
E 103 104 5
E 104 105 5
E 105 106 5
E 106 107 5
E 107 108 5
E 108 109 5
E 109 110 5
E 110 111 5
E 111 112 5
E 112 113 5
E 113 114 5
E 75 115 13
E 76 116 13
E 77 118 13
E 78 119 13
E 79 120 13
E 80 121 13
E 81 122 13
E 82 123 13
E 83 124 13
E 84 125 13
E 85 126 13
E 86 127 13
E 87 128 13
E 88 129 13
E 89 130 13
E 90 131 13
E 91 132 13
E 92 133 13
E 93 134 13
E 94 135 13
E 95 136 13
E 97 137 13
E 98 138 13
E 99 139 13
E 101 140 13
E 102 141 13
E 103 142 13
E 104 143 13
E 105 144 13
E 106 145 13
E 107 146 13
E 108 147 13
E 109 148 13
E 110 149 13
E 111 150 13
E 112 151 13
E 113 152 13
E 114 153 13
E 115 116 5
E 116 117 5
E 117 118 5
E 118 119 5
E 119 120 5
E 120 121 5
E 121 122 5
E 122 123 5
E 123 124 5
E 124 125 5
E 125 126 5
E 126 127 5
E 127 128 5
E 128 129 5
E 129 130 5
E 130 131 5
E 131 132 5
E 132 133 5
E 133 134 5
E 134 135 5
E 137 138 5
E 138 139 5
E 140 141 5
E 141 142 5
E 142 143 5
E 143 144 5
E 144 145 5
E 145 146 5
E 146 147 5
E 147 148 5
E 148 149 5
E 149 150 5
E 150 151 5
E 151 152 5
E 152 153 5
E 115 154 13
E 116 155 13
E 117 156 13
E 118 157 13
E 119 158 13
E 120 159 13
E 121 160 13
E 122 161 13
E 123 162 13
E 124 163 13
E 125 164 13
E 126 165 13
E 127 166 13
E 128 167 13
E 129 168 13
E 130 169 13
E 131 170 13
E 133 171 13
E 135 172 13
E 136 174 13
E 137 175 13
E 138 176 13
E 139 177 13
E 140 178 13
E 141 179 13
E 142 180 13
E 143 181 13
E 144 182 13
E 145 183 13
E 146 184 13
E 147 185 13
E 148 186 13
E 149 187 13
E 150 188 13
E 151 189 13
E 152 190 13
E 153 191 13
E 154 155 5
E 155 156 5
E 156 157 5
E 157 158 5
E 158 159 5
E 159 160 5
E 160 161 5
E 161 162 5
E 162 163 5
E 163 164 5
E 164 165 5
E 165 166 5
E 166 167 5
E 167 168 5
E 168 169 5
E 169 170 5
E 172 173 5
E 173 174 5
E 175 176 5
E 176 177 5
E 178 179 5
E 179 180 5
E 180 181 5
E 181 182 5
E 182 183 5
E 183 184 5
E 184 185 5
E 185 186 5
E 186 187 5
E 187 188 5
E 188 189 5
E 189 190 5
E 190 191 5
E 154 192 13
E 155 193 13
E 156 194 13
E 157 195 13
E 158 196 13
E 159 197 13
E 160 198 13
E 161 199 13
E 162 200 13
E 163 201 13
E 164 202 13
E 165 203 13
E 166 204 13
E 167 205 13
E 168 206 13
E 169 207 13
E 170 208 13
E 171 209 13
E 172 210 13
E 173 211 13
E 174 212 13
E 175 214 13
E 176 215 13
E 177 216 13
E 178 218 13
E 179 219 13
E 180 220 13
E 181 221 13
E 182 222 13
E 183 223 13
E 184 224 13
E 185 225 13
E 186 226 13
E 187 227 13
E 188 228 13
E 189 229 13
E 190 230 13
E 191 231 13
E 192 193 5
E 193 194 5
E 194 195 5
E 195 196 5
E 196 197 5
E 197 198 5
E 198 199 5
E 199 200 5
E 200 201 5
E 201 202 5
E 202 203 5
E 203 204 5
E 204 205 5
E 205 206 5
E 206 207 5
E 207 208 5
E 210 211 5
E 211 212 5
E 212 213 5
E 213 214 5
E 214 215 5
E 215 216 5
E 216 217 5
E 217 218 5
E 218 219 5
E 219 220 5
E 220 221 5
E 221 222 5
E 222 223 5
E 223 224 5
E 224 225 5
E 225 226 5
E 226 227 5
E 227 228 5
E 228 229 5
E 229 230 5
E 230 231 5
E 192 232 13
E 193 233 13
E 194 234 13
E 195 235 13
E 197 236 13
E 198 237 13
E 199 238 13
E 200 239 13
E 201 240 13
E 202 241 13
E 203 242 13
E 204 243 13
E 205 244 13
E 206 245 13
E 207 246 13
E 208 247 13
E 209 249 13
E 210 251 13
E 211 252 13
E 212 253 13
E 213 254 13
E 214 255 13
E 215 256 13
E 216 257 13
E 217 258 13
E 218 259 13
E 219 260 13
E 220 261 13
E 221 262 13
E 222 263 13
E 223 264 13
E 224 265 13
E 225 266 13
E 226 267 13
E 227 268 13
E 228 269 13
E 229 270 13
E 230 271 13
E 231 272 13
E 232 233 5
E 233 234 5
E 234 235 5
E 236 237 5
E 237 238 5
E 238 239 5
E 239 240 5
E 240 241 5
E 241 242 5
E 242 243 5
E 243 244 5
E 244 245 5
E 245 246 5
E 246 247 5
E 247 248 5
E 248 249 5
E 249 250 5
E 250 251 5
E 251 252 5
E 252 253 5
E 253 254 5
E 254 255 5
E 255 256 5
E 256 257 5
E 257 258 5
E 258 259 5
E 259 260 5
E 260 261 5
E 261 262 5
E 262 263 5
E 263 264 5
E 264 265 5
E 265 266 5
E 266 267 5
E 267 268 5
E 268 269 5
E 269 270 5
E 270 271 5
E 271 272 5
E 232 273 13
E 233 274 13
E 234 275 13
E 235 276 13
E 236 277 13
E 237 278 13
E 238 279 13
E 239 280 13
E 240 281 13
E 241 282 13
E 242 283 13
E 243 284 13
E 244 285 13
E 245 286 13
E 247 287 13
E 248 288 13
E 249 289 13
E 250 290 13
E 251 291 13
E 253 292 13
E 254 293 13
E 255 294 13
E 257 295 13
E 258 296 13
E 268 297 13
E 269 298 13
E 270 299 13
E 271 300 13
E 272 301 13
E 273 274 5
E 274 275 5
E 275 276 5
E 277 278 5
E 278 279 5
E 279 280 5
E 280 281 5
E 281 282 5
E 282 283 5
E 283 284 5
E 284 285 5
E 285 286 5
E 287 288 5
E 288 289 5
E 289 290 5
E 290 291 5
E 292 293 5
E 293 294 5
E 295 296 5
E 297 298 5
E 298 299 5
E 299 300 5
E 300 301 5
E 273 302 13
E 274 303 13
E 275 304 13
E 276 305 13
E 277 307 13
E 278 308 13
E 279 309 13
E 280 310 13
E 281 311 13
E 282 312 13
E 283 313 13
E 284 314 13
E 285 315 13
E 286 316 13
E 287 317 13
E 288 318 13
E 289 319 13
E 291 320 13
E 292 321 13
E 294 322 13
E 295 323 13
E 296 324 13
E 297 325 13
E 298 326 13
E 300 327 13
E 301 328 13
E 302 303 5
E 303 304 5
E 304 305 5
E 305 306 5
E 306 307 5
E 307 308 5
E 308 309 5
E 309 310 5
E 310 311 5
E 311 312 5
E 312 313 5
E 313 314 5
E 314 315 5
E 315 316 5
E 317 318 5
E 318 319 5
E 323 324 5
E 325 326 5
E 327 328 5
E 302 329 13
E 303 330 13
E 304 331 13
E 305 332 13
E 306 333 13
E 307 334 13
E 308 335 13
E 309 336 13
E 310 337 13
E 311 338 13
E 312 339 13
E 313 340 13
E 314 341 13
E 315 342 13
E 316 343 13
E 317 345 13
E 318 346 13
E 319 347 13
E 320 348 13
E 321 350 13
E 322 351 13
E 323 353 13
E 324 354 13
E 325 355 13
E 326 356 13
E 327 357 13
E 328 358 13
E 329 330 5
E 330 331 5
E 331 332 5
E 332 333 5
E 333 334 5
E 334 335 5
E 335 336 5
E 336 337 5
E 337 338 5
E 338 339 5
E 339 340 5
E 340 341 5
E 341 342 5
E 342 343 5
E 343 344 5
E 344 345 5
E 345 346 5
E 346 347 5
E 348 349 5
E 349 350 5
E 351 352 5
E 352 353 5
E 353 354 5
E 355 356 5
E 357 358 5
E 329 359 13
E 330 360 13
E 331 361 13
E 332 362 13
E 333 363 13
E 334 364 13
E 335 365 13
E 336 366 13
E 337 367 13
E 338 368 13
E 339 369 13
E 340 370 13
E 341 371 13
E 342 372 13
E 343 373 13
E 344 374 13
E 345 375 13
E 347 376 13
E 348 378 13
E 349 379 13
E 350 380 13
E 351 382 13
E 352 383 13
E 353 384 13
E 354 385 13
E 355 386 13
E 356 387 13
E 357 389 13
E 358 390 13
E 359 360 5
E 360 361 5
E 361 362 5
E 362 363 5
E 363 364 5
E 364 365 5
E 365 366 5
E 366 367 5
E 367 368 5
E 368 369 5
E 369 370 5
E 370 371 5
E 371 372 5
E 372 373 5
E 373 374 5
E 374 375 5
E 376 377 5
E 377 378 5
E 378 379 5
E 379 380 5
E 380 381 5
E 381 382 5
E 382 383 5
E 383 384 5
E 384 385 5
E 386 387 5
E 387 388 5
E 388 389 5
E 389 390 5
E 359 391 13
E 360 392 13
E 361 393 13
E 362 394 13
E 363 395 13
E 364 396 13
E 365 397 13
E 366 398 13
E 367 399 13
E 368 400 13
E 369 401 13
E 370 402 13
E 371 403 13
E 372 404 13
E 373 405 13
E 374 406 13
E 375 407 13
E 376 408 13
E 377 409 13
E 378 410 13
E 380 411 13
E 381 412 13
E 382 413 13
E 383 414 13
E 384 415 13
E 385 416 13
E 386 426 13
E 387 427 13
E 388 428 13
E 389 429 13
E 391 392 5
E 392 393 5
E 393 394 5
E 394 395 5
E 395 396 5
E 396 397 5
E 397 398 5
E 398 399 5
E 399 400 5
E 400 401 5
E 401 402 5
E 402 403 5
E 403 404 5
E 404 405 5
E 405 406 5
E 406 407 5
E 408 409 5
E 409 410 5
E 411 412 5
E 412 413 5
E 413 414 5
E 414 415 5
E 415 416 5
E 416 417 5
E 417 418 5
E 418 419 5
E 419 420 5
E 420 421 5
E 421 422 5
E 422 423 5
E 423 424 5
E 424 425 5
E 425 426 5
E 426 427 5
E 427 428 5
E 428 429 5
E 391 430 13
E 392 431 13
E 393 432 13
E 394 433 13
E 395 434 13
E 396 435 13
E 397 436 13
E 398 437 13
E 399 438 13
E 400 439 13
E 401 440 13
E 402 441 13
E 403 442 13
E 404 443 13
E 405 444 13
E 406 445 13
E 407 446 13
E 408 448 13
E 409 449 13
E 410 450 13
E 411 451 13
E 412 452 13
E 413 453 13
E 414 454 13
E 416 455 13
E 417 456 13
E 418 457 13
E 419 458 13
E 420 459 13
E 421 460 13
E 422 461 13
E 423 462 13
E 424 463 13
E 425 464 13
E 426 465 13
E 427 466 13
E 428 467 13
E 429 468 13
E 430 431 5
E 431 432 5
E 432 433 5
E 433 434 5
E 434 435 5
E 435 436 5
E 436 437 5
E 437 438 5
E 438 439 5
E 439 440 5
E 440 441 5
E 441 442 5
E 442 443 5
E 443 444 5
E 444 445 5
E 445 446 5
E 446 447 5
E 447 448 5
E 448 449 5
E 449 450 5
E 451 452 5
E 452 453 5
E 453 454 5
E 455 456 5
E 456 457 5
E 457 458 5
E 458 459 5
E 459 460 5
E 460 461 5
E 461 462 5
E 462 463 5
E 463 464 5
E 464 465 5
E 465 466 5
E 466 467 5
E 467 468 5
END

SECTION Terminals
Terminals 14
T 30
T 59
T 71
T 88
T 108
T 109
T 110
T 111
T 115
T 118
T 227
T 357
T 427
T 428
END

EOF
